-99 -99 -99 -99 -99 -99 -99 -99 -99 -99 -99 -99 -99 000 -99 -99 -99 -99 -99 -99 -99 -99 -99 000 000 000 000 -99 000 -99 000
000 -99 -99 000 000 000 -99 -99 -99 -99 -99 -99 -99 -99 -99 -99 -99 000 -99 -99 -99 -99 -99 -99 000 000 -99 000 000 -99 000
000 -99 000 000 000 000 000 000 -99 -99 -99 -99 -99 -99 -99 -99 000 000 -99 -99 -99 000 000 000 000 000 -99 000 000 000 000
000 -99 000 000 000 000 000 000 000 -99 -99 -99 -99 -99 -99 -99 -99 -99 -99 -99 -99 -99 000 000 000 000 -99 000 000 000 000
000 000 000 000 000 000 000 000 000 -99 -99 -99 000 -99 -99 -99 -99 -99 -99 -99 -99 -99 000 000 000 000 -99 -99 000 -99 000
000 000 000 000 000 000 000 000 000 000 000 -99 000 -99 -99 000 000 -99 -99 -99 -99 -99 000 000 000 000 -99 -99 -99 000 000
000 000 000 000 000 000 000 000 000 000 -99 -99 -99 000 -99 000 000 -99 -99 -99 000 000 000 000 000 000 -99 -99 -99 000 000
000 000 000 000 000 000 000 000 000 000 -99 -99 -99 -99 -99 000 000 000 -99 -99 -99 000 000 000 000 -99 -99 -99 -99 001 000
000 000 000 000 000 000 000 000 000 000 000 000 -99 -99 -99 -99 000 -99 -99 -99 000 000 000 000 000 000 000 000 000 001 000
000 000 000 000 000 000 000 000 000 000 000 000 -99 -99 -99 -99 -99 -99 -99 -99 000 000 -99 000 000 000 000 000 000 001 000
000 000 000 000 000 000 000 000 000 000 000 000 000 000 -99 -99 -99 000 -99 -99 000 000 -99 000 000 000 000 000 000 000 000
000 000 000 000 000 000 000 000 000 001 000 000 000 000 -99 -99 -99 000 000 -99 000 000 -99 000 000 000 000 000 000 000 000
001 000 000 000 000 000 000 000 000 001 000 000 000 000 000 000 000 000 000 -99 000 000 -99 000 000 000 000 000 000 000 001
003 000 000 001 000 000 000 000 000 002 001 000 000 000 000 000 000 000 000 000 -99 000 -99 000 000 000 001 000 000 001 001
006 002 001 001 001 000 000 001 000 001 001 000 000 000 000 000 000 000 -99 -99 -99 000 -99 000 000 000 000 000 001 001 000
008 005 003 002 000 000 000 000 001 001 002 001 001 001 000 000 000 000 000 -99 -99 000 -99 000 000 000 000 001 002 002 001
014 016 004 005 000 000 000 000 001 001 001 001 001 000 000 000 000 000 000 000 -99 -99 000 000 000 000 000 001 001 002 003
023 010 007 005 001 000 000 000 000 001 001 002 001 001 000 000 000 000 000 000 -99 000 000 000 000 000 000 001 001 002 003
021 014 009 007 002 000 000 000 000 001 001 002 001 001 001 000 000 000 000 000 000 000 000 000 000 000 000 000 002 002 003
020 016 017 012 003 001 000 000 001 001 001 002 002 002 002 002 000 000 000 000 000 000 000 -99 -99 000 000 000 002 001 003
007 020 013 007 003 001 000 001 001 002 002 002 006 003 003 002 001 000 001 000 000 000 000 -99 -99 -99 000 001 002 001 003
003 012 013 005 002 001 000 001 002 003 003 003 006 003 001 001 002 002 001 000 000 000 000 -99 -99 000 -99 -99 001 002 003
001 003 010 005 002 001 000 002 003 004 006 007 007 006 001 002 011 004 001 001 001 001 001 005 -99 000 -99 -99 001 003 003
000 000 003 004 002 000 001 004 004 010 016 014 010 013 004 003 026 010 003 004 004 006 003 004 -99 -99 -99 -99 -99 004 002
000 000 001 003 001 001 001 003 004 015 031 023 031 024 018 009 033 018 013 014 007 013 008 005 -99 -99 -99 -99 -99 004 004
000 000 000 001 001 001 001 002 005 015 021 042 046 040 025 021 025 018 014 017 006 012 012 007 -99 -99 -99 -99 002 002 004
000 000 000 001 001 002 002 003 009 020 025 039 061 061 031 028 016 007 006 006 006 007 007 -99 -99 -99 -99 -99 002 001 002
000 000 000 001 001 001 003 005 014 020 032 111 165 042 021 008 001 002 001 004 007 006 005 003 003 -99 -99 001 001 001 003
000 000 000 001 001 001 002 003 009 016 029 158 203 042 033 008 000 000 000 002 006 005 004 004 002 001 -99 -99 002 002 006
000 000 000 000 000 002 003 003 005 021 035 140 091 056 034 006 000 000 000 001 005 003 003 004 002 001 001 001 002 005 008
000 000 000 000 002 003 003 004 004 007 021 089 054 039 025 011 002 000 000 000 001 001 001 002 002 001 001 001 003 008 015
000 000 000 000 000 001 003 004 009 021 040 053 040 029 019 006 000 000 000 000 000 000 001 003 003 003 002 002 002 010 016
000 000 000 000 000 000 001 005 007 010 010 020 035 025 005 003 000 000 000 000 000 000 001 004 008 009 006 006 014 021 033
-99 -99 000 000 000 000 000 001 002 002 005 009 031 007 001 000 000 000 000 000 000 000 000 004 010 012 017 034 017 025 061
-99 -99 -99 000 000 000 000 000 000 000 000 000 002 001 000 000 000 000 000 000 -99 000 000 004 014 062 037 039 039 030 075
-99 -99 -99 -99 000 000 -99 000 000 000 000 000 000 000 000 000 000 000 000 000 -99 000 000 002 011 064 044 054 090 100 179
000 000 -99 -99 -99 -99 -99 -99 -99 -99 000 -99 000 -99 000 000 000 000 -99 -99 -99 000 000 000 002 032 033 046 072 050 092
000 -99 -99 -99 -99 -99 -99 -99 -99 -99 -99 -99 -99 -99 -99 000 000 000 -99 -99 000 000 000 000 001 007 010 024 037 038 089
000 000 -99 -99 -99 -99 -99 -99 -99 -99 -99 -99 -99 000 000 -99 000 000 -99 -99 000 -99 000 000 000 001 006 003 007 020 061
000 -99 -99 000 -99 -99 -99 -99 -99 -99 -99 -99 000 000 -99 -99 000 000 -99 -99 -99 -99 -99 000 001 000 000 001 004 016 039
-99 000 -99 -99 -99 -99 -99 -99 -99 -99 000 000 000 000 -99 -99 -99 -99 -99 -99 -99 -99 000 000 -99 000 000 000 002 011 006
000 000 -99 -99 -99 -99 -99 -99 -99 -99 000 000 000 -99 -99 000 -99 -99 -99 -99 -99 -99 000 -99 000 000 -99 000 000 000 004
000 000 -99 -99 -99 -99 -99 -99 -99 -99 -99 000 000 -99 -99 000 000 -99 -99 -99 -99 -99 -99 -99 000 000 -99 000 000 000 002
000 -99 -99 -99 -99 -99 000 000 -99 -99 -99 000 000 -99 000 000 000 -99 -99 000 -99 -99 -99 -99 000 -99 -99 000 000 000 001
-99 -99 -99 -99 -99 -99 000 000 -99 -99 -99 000 000 -99 000 000 -99 -99 000 000 000 -99 -99 -99 -99 -99 -99 000 000 -99 -99
-99 -99 -99 -99 -99 -99 -99 -99 -99 -99 000 000 000 -99 -99 000 -99 000 000 000 -99 -99 -99 -99 -99 -99 -99 000 000 -99 -99
-99 -99 -99 -99 -99 -99 -99 -99 -99 -99 -99 -99 -99 -99 -99 -99 -99 -99 000 000 -99 -99 -99 -99 -99 -99 000 000 000 -99 -99
-99 -99 -99 -99 -99 -99 -99 -99 -99 -99 -99 -99 -99 -99 -99 -99 -99 -99 -99 -99 -99 -99 -99 -99 -99 -99 000 000 -99 -99 -99
-99 -99 -99 -99 -99 -99 -99 -99 -99 -99 -99 -99 -99 -99 -99 -99 -99 -99 -99 -99 -99 -99 -99 -99 -99 000 000 000 -99 -99 -99
-99 -99 -99 -99 -99 -99 -99 -99 -99 -99 -99 -99 -99 -99 -99 -99 -99 -99 -99 -99 -99 -99 -99 -99 -99 000 000 000 -99 -99 -99
-99 -99 -99 -99 -99 -99 -99 -99 -99 -99 -99 -99 -99 -99 -99 -99 -99 -99 -99 -99 -99 -99 -99 -99 -99 -99 -99 -99 -99 -99 -99
-99 -99 -99 -99 -99 -99 -99 -99 -99 -99 -99 -99 -99 -99 -99 -99 -99 -99 -99 -99 -99 -99 -99 -99 -99 -99 -99 -99 -99 -99 -99
-99 -99 -99 -99 -99 -99 -99 -99 -99 -99 -99 -99 -99 -99 -99 -99 -99 -99 -99 -99 -99 -99 -99 -99 -99 -99 -99 -99 -99 -99 000
-99 -99 -99 -99 -99 -99 -99 -99 -99 -99 -99 -99 -99 -99 -99 -99 -99 -99 -99 -99 -99 -99 -99 -99 -99 -99 -99 -99 -99 000 000
-99 -99 -99 -99 -99 -99 -99 -99 -99 -99 -99 -99 -99 -99 -99 -99 -99 -99 -99 -99 -99 -99 -99 -99 -99 -99 -99 -99 000 000 001
